GLPSOL--GLPK LP/MIP Solver 5.0
Parameter(s) specified in the command line:
 --cpxlp --first inputs/new_no_tr/order/triang7_0_down_left_input.lp -o solutions/new_no_tr/triang7_0_down_left_input.lp
Reading problem data from 'inputs/new_no_tr/order/triang7_0_down_left_input.lp'...
inputs/new_no_tr/order/triang7_0_down_left_input.lp:4167: warning: lower bound of variable 'm_0_0' redefined
inputs/new_no_tr/order/triang7_0_down_left_input.lp:4167: warning: upper bound of variable 'm_0_0' redefined
3991 rows, 1597 columns, 11607 non-zeros
1597 integer variables, 1428 of which are binary
5735 lines were read
GLPK Integer Optimizer 5.0
3991 rows, 1597 columns, 11607 non-zeros
1597 integer variables, 1428 of which are binary
Preprocessing...
42 hidden packing inequaliti(es) were detected
84 hidden covering inequaliti(es) were detected
672 constraint coefficient(s) were reduced
3559 rows, 1342 columns, 10123 non-zeros
1342 integer variables, 1313 of which are binary
Scaling...
 A: min|aij| =  1.000e+00  max|aij| =  9.900e+01  ratio =  9.900e+01
GM: min|aij| =  4.347e-01  max|aij| =  2.300e+00  ratio =  5.292e+00
EQ: min|aij| =  1.890e-01  max|aij| =  1.000e+00  ratio =  5.292e+00
2N: min|aij| =  1.250e-01  max|aij| =  1.438e+00  ratio =  1.150e+01
Constructing initial basis...
Size of triangular part is 3223
Solving LP relaxation...
GLPK Simplex Optimizer 5.0
3559 rows, 1342 columns, 10123 non-zeros
      0: obj =   2.320000000e+02 inf =   1.510e+02 (129)
Perturbing LP to avoid stalling [199]...
   1240: obj =   3.507194294e+02 inf =   1.673e-07 (0) 11
Removing LP perturbation [1965]...
*  1965: obj =   2.532308952e+02 inf =   6.598e-14 (0) 7
OPTIMAL LP SOLUTION FOUND
Integer optimization begins...
Long-step dual simplex will be used
+  1965: mip =     not found yet >=              -inf        (1; 0)
+ 21304: mip =     not found yet >=   2.540000000e+02        (14; 17)
+ 41754: mip =     not found yet >=   2.540000000e+02        (26; 37)
+ 61778: mip =     not found yet >=   2.540000000e+02        (37; 58)
+ 80350: mip =     not found yet >=   2.540000000e+02        (49; 75)
+ 99923: mip =     not found yet >=   2.630000000e+02        (51; 91)
+120532: mip =     not found yet >=   2.640000000e+02        (53; 101)
+139972: mip =     not found yet >=   2.640000000e+02        (54; 110)
+159011: mip =     not found yet >=   2.640000000e+02        (53; 121)
+178022: mip =     not found yet >=   2.640000000e+02        (51; 133)
+198063: mip =     not found yet >=   2.760000000e+02        (54; 142)
+218594: mip =     not found yet >=   2.770000000e+02        (55; 152)
Time used: 60.2 secs.  Memory used: 5.8 Mb.
+239521: mip =     not found yet >=   2.770000000e+02        (57; 165)
+259642: mip =     not found yet >=   2.770000000e+02        (57; 175)
+280027: mip =     not found yet >=   2.770000000e+02        (60; 185)
+301096: mip =     not found yet >=   2.790000000e+02        (64; 199)
+320207: mip =     not found yet >=   2.790000000e+02        (67; 208)
+339570: mip =     not found yet >=   2.790000000e+02        (67; 218)
+360489: mip =     not found yet >=   2.790000000e+02        (75; 229)
+379897: mip =     not found yet >=   2.790000000e+02        (77; 239)
+400252: mip =     not found yet >=   2.790000000e+02        (79; 250)
+422214: mip =     not found yet >=   2.800000000e+02        (104; 302)
+444133: mip =     not found yet >=   2.800000000e+02        (151; 342)
+466592: mip =     not found yet >=   2.800000000e+02        (197; 365)
Time used: 120.2 secs.  Memory used: 7.6 Mb.
+488496: mip =     not found yet >=   2.800000000e+02        (280; 391)
+510740: mip =     not found yet >=   2.800000000e+02        (336; 420)
+533515: mip =     not found yet >=   2.800000000e+02        (390; 439)
+555883: mip =     not found yet >=   2.800000000e+02        (451; 483)
+578337: mip =     not found yet >=   2.800000000e+02        (498; 540)
+601202: mip =     not found yet >=   2.800000000e+02        (544; 571)
+622419: mip =     not found yet >=   2.800000000e+02        (570; 581)
+643955: mip =     not found yet >=   2.800000000e+02        (590; 602)
+665351: mip =     not found yet >=   2.800000000e+02        (614; 610)
+686938: mip =     not found yet >=   2.800000000e+02        (646; 650)
+708470: mip =     not found yet >=   2.800000000e+02        (669; 668)
Time used: 180.4 secs.  Memory used: 11.2 Mb.
+730242: mip =     not found yet >=   2.800000000e+02        (690; 677)
+752600: mip =     not found yet >=   2.800000000e+02        (744; 722)
+776614: mip =     not found yet >=   2.800000000e+02        (802; 776)
+799998: mip =     not found yet >=   2.800000000e+02        (845; 842)
+821613: mip =     not found yet >=   2.800000000e+02        (882; 899)
+844848: mip =     not found yet >=   2.800000000e+02        (933; 932)
+867784: mip =     not found yet >=   2.800000000e+02        (998; 984)
+889517: mip =     not found yet >=   2.800000000e+02        (1031; 1046)
+912823: mip =     not found yet >=   2.800000000e+02        (1059; 1116)
+935694: mip =     not found yet >=   2.800000000e+02        (1098; 1168)
+957327: mip =     not found yet >=   2.800000000e+02        (1135; 1189)
+979733: mip =     not found yet >=   2.800000000e+02        (1185; 1239)
Time used: 240.4 secs.  Memory used: 16.7 Mb.
+1002310: mip =     not found yet >=   2.800000000e+02        (1232; 1305)
+1024733: mip =     not found yet >=   2.800000000e+02        (1273; 1361)
+1046514: mip =     not found yet >=   2.800000000e+02        (1297; 1392)
+1068065: mip =     not found yet >=   2.800000000e+02        (1320; 1409)
+1089953: mip =     not found yet >=   2.800000000e+02        (1353; 1420)
+1111596: mip =     not found yet >=   2.800000000e+02        (1377; 1446)
+1133217: mip =     not found yet >=   2.800000000e+02        (1402; 1497)
+1155152: mip =     not found yet >=   2.800000000e+02        (1425; 1514)
+1175666: mip =     not found yet >=   2.800000000e+02        (1449; 1526)
+1197008: mip =     not found yet >=   2.800000000e+02        (1465; 1546)
+1218039: mip =     not found yet >=   2.800000000e+02        (1486; 1565)
+1239020: mip =     not found yet >=   2.800000000e+02        (1519; 1583)
Time used: 300.4 secs.  Memory used: 19.5 Mb.
+1261829: mip =     not found yet >=   2.800000000e+02        (1557; 1621)
+1284351: mip =     not found yet >=   2.800000000e+02        (1604; 1680)
+1305964: mip =     not found yet >=   2.800000000e+02        (1648; 1724)
+1328276: mip =     not found yet >=   2.800000000e+02        (1684; 1775)
+1350044: mip =     not found yet >=   2.800000000e+02        (1728; 1815)
+1372613: mip =     not found yet >=   2.800000000e+02        (1748; 1835)
+1395645: mip =     not found yet >=   2.800000000e+02        (1787; 1862)
+1418223: mip =     not found yet >=   2.800000000e+02        (1832; 1940)
+1439518: mip =     not found yet >=   2.800000000e+02        (1877; 1994)
+1462895: mip =     not found yet >=   2.800000000e+02        (1937; 2047)
+1486956: mip =     not found yet >=   2.800000000e+02        (1977; 2099)
+1509938: mip =     not found yet >=   2.800000000e+02        (2041; 2161)
Time used: 360.4 secs.  Memory used: 24.6 Mb.
+1533303: mip =     not found yet >=   2.800000000e+02        (2084; 2207)
+1553629: mip =     not found yet >=   2.800000000e+02        (2088; 2256)
+1575266: mip =     not found yet >=   2.800000000e+02        (2117; 2290)
+1586472: >>>>>   4.900000000e+02 >=   2.800000000e+02  42.9% (2160; 2293)
+1608546: mip =   4.900000000e+02 >=   2.800000000e+02  42.9% (2183; 2331)
+1630380: mip =   4.900000000e+02 >=   2.800000000e+02  42.9% (2223; 2373)
+1651667: mip =   4.900000000e+02 >=   2.800000000e+02  42.9% (2262; 2428)
+1671596: >>>>>   4.180000000e+02 >=   2.800000000e+02  33.0% (2321; 2475)
+1695445: mip =   4.180000000e+02 >=   2.800000000e+02  33.0% (2372; 2558)
+1717976: mip =   4.180000000e+02 >=   2.800000000e+02  33.0% (2421; 2610)
+1740279: mip =   4.180000000e+02 >=   2.800000000e+02  33.0% (2479; 2682)
+1761868: mip =   4.180000000e+02 >=   2.800000000e+02  33.0% (2535; 2728)
Time used: 420.4 secs.  Memory used: 29.8 Mb.
+1783297: mip =   4.180000000e+02 >=   2.800000000e+02  33.0% (2548; 2756)
+1805398: mip =   4.180000000e+02 >=   2.800000000e+02  33.0% (2566; 2766)
+1826517: mip =   4.180000000e+02 >=   2.800000000e+02  33.0% (2598; 2802)
+1848326: mip =   4.180000000e+02 >=   2.800000000e+02  33.0% (2643; 2849)
+1870109: mip =   4.180000000e+02 >=   2.800000000e+02  33.0% (2679; 2867)
+1892531: mip =   4.180000000e+02 >=   2.800000000e+02  33.0% (2703; 2885)
+1914788: mip =   4.180000000e+02 >=   2.800000000e+02  33.0% (2735; 2899)
+1936121: mip =   4.180000000e+02 >=   2.800000000e+02  33.0% (2760; 2910)
+1957607: mip =   4.180000000e+02 >=   2.800000000e+02  33.0% (2784; 2926)
+1978405: mip =   4.180000000e+02 >=   2.800000000e+02  33.0% (2795; 2941)
+2000435: mip =   4.180000000e+02 >=   2.800000000e+02  33.0% (2837; 2955)
+2021604: mip =   4.180000000e+02 >=   2.800000000e+02  33.0% (2873; 2964)
Time used: 480.5 secs.  Memory used: 32.2 Mb.
+2043730: mip =   4.180000000e+02 >=   2.800000000e+02  33.0% (2912; 2987)
+2066479: mip =   4.180000000e+02 >=   2.800000000e+02  33.0% (2964; 3022)
+2088897: mip =   4.180000000e+02 >=   2.800000000e+02  33.0% (3000; 3074)
+2110362: mip =   4.180000000e+02 >=   2.800000000e+02  33.0% (3028; 3095)
+2132043: mip =   4.180000000e+02 >=   2.800000000e+02  33.0% (3063; 3111)
+2152794: mip =   4.180000000e+02 >=   2.800000000e+02  33.0% (3093; 3122)
+2174630: mip =   4.180000000e+02 >=   2.800000000e+02  33.0% (3120; 3133)
+2196800: mip =   4.180000000e+02 >=   2.800000000e+02  33.0% (3151; 3152)
+2217721: mip =   4.180000000e+02 >=   2.800000000e+02  33.0% (3184; 3160)
+2239356: mip =   4.180000000e+02 >=   2.800000000e+02  33.0% (3201; 3176)
+2260684: mip =   4.180000000e+02 >=   2.800000000e+02  33.0% (3226; 3189)
+2283106: mip =   4.180000000e+02 >=   2.800000000e+02  33.0% (3277; 3226)
Time used: 540.5 secs.  Memory used: 35.3 Mb.
+2306657: mip =   4.180000000e+02 >=   2.800000000e+02  33.0% (3336; 3263)
+2329847: mip =   4.180000000e+02 >=   2.800000000e+02  33.0% (3353; 3299)
+2350960: mip =   4.180000000e+02 >=   2.800000000e+02  33.0% (3388; 3309)
+2372276: mip =   4.180000000e+02 >=   2.800000000e+02  33.0% (3411; 3340)
+2393503: mip =   4.180000000e+02 >=   2.810000000e+02  32.8% (3438; 3359)
+2413764: mip =   4.180000000e+02 >=   2.810000000e+02  32.8% (3442; 3381)
+2434002: mip =   4.180000000e+02 >=   2.810000000e+02  32.8% (3459; 3392)
+2454429: mip =   4.180000000e+02 >=   2.810000000e+02  32.8% (3480; 3408)
+2475219: mip =   4.180000000e+02 >=   2.810000000e+02  32.8% (3501; 3418)
+2496212: mip =   4.180000000e+02 >=   2.810000000e+02  32.8% (3521; 3425)
+2517577: mip =   4.180000000e+02 >=   2.810000000e+02  32.8% (3539; 3431)
Time used: 600.8 secs.  Memory used: 37.7 Mb.
+2539848: mip =   4.180000000e+02 >=   2.810000000e+02  32.8% (3565; 3437)
+2560970: mip =   4.180000000e+02 >=   2.810000000e+02  32.8% (3602; 3458)
+2581246: mip =   4.180000000e+02 >=   2.810000000e+02  32.8% (3623; 3468)
+2603004: mip =   4.180000000e+02 >=   2.820000000e+02  32.5% (3661; 3494)
+2624547: mip =   4.180000000e+02 >=   2.820000000e+02  32.5% (3696; 3519)
+2647576: mip =   4.180000000e+02 >=   2.820000000e+02  32.5% (3748; 3554)
+2669057: mip =   4.180000000e+02 >=   2.820000000e+02  32.5% (3775; 3575)
+2691231: mip =   4.180000000e+02 >=   2.820000000e+02  32.5% (3817; 3585)
+2700350: >>>>>   4.000000000e+02 >=   2.820000000e+02  29.5% (3846; 3590)
+2722568: mip =   4.000000000e+02 >=   2.820000000e+02  29.5% (3867; 3628)
+2745093: mip =   4.000000000e+02 >=   2.820000000e+02  29.5% (3902; 3649)
+2767524: mip =   4.000000000e+02 >=   2.820000000e+02  29.5% (3955; 3688)
Time used: 660.8 secs.  Memory used: 40.5 Mb.
+2790981: mip =   4.000000000e+02 >=   2.820000000e+02  29.5% (4002; 3735)
+2813026: mip =   4.000000000e+02 >=   2.820000000e+02  29.5% (4041; 3770)
+2834964: mip =   4.000000000e+02 >=   2.820000000e+02  29.5% (4070; 3804)
+2858223: mip =   4.000000000e+02 >=   2.820000000e+02  29.5% (4107; 3826)
+2880436: mip =   4.000000000e+02 >=   2.820000000e+02  29.5% (4155; 3886)
+2902552: mip =   4.000000000e+02 >=   2.820000000e+02  29.5% (4242; 3930)
+2924036: mip =   4.000000000e+02 >=   2.820000000e+02  29.5% (4279; 3973)
+2946250: mip =   4.000000000e+02 >=   2.820000000e+02  29.5% (4340; 4039)
+2969241: mip =   4.000000000e+02 >=   2.820000000e+02  29.5% (4404; 4083)
+2990589: mip =   4.000000000e+02 >=   2.820000000e+02  29.5% (4439; 4116)
+3013239: mip =   4.000000000e+02 >=   2.820000000e+02  29.5% (4479; 4179)
+3034922: mip =   4.000000000e+02 >=   2.820000000e+02  29.5% (4527; 4260)
Time used: 720.8 secs.  Memory used: 44.7 Mb.
+3057307: mip =   4.000000000e+02 >=   2.820000000e+02  29.5% (4576; 4301)
+3079383: mip =   4.000000000e+02 >=   2.820000000e+02  29.5% (4608; 4332)
+3102208: mip =   4.000000000e+02 >=   2.820000000e+02  29.5% (4655; 4352)
+3123876: mip =   4.000000000e+02 >=   2.820000000e+02  29.5% (4699; 4377)
+3145782: mip =   4.000000000e+02 >=   2.820000000e+02  29.5% (4747; 4391)
+3167890: mip =   4.000000000e+02 >=   2.820000000e+02  29.5% (4778; 4430)
+3189383: mip =   4.000000000e+02 >=   2.820000000e+02  29.5% (4822; 4497)
+3212510: mip =   4.000000000e+02 >=   2.830000000e+02  29.2% (4866; 4555)
+3234886: mip =   4.000000000e+02 >=   2.830000000e+02  29.2% (4898; 4591)
+3256345: mip =   4.000000000e+02 >=   2.830000000e+02  29.2% (4918; 4630)
+3277790: mip =   4.000000000e+02 >=   2.830000000e+02  29.2% (4940; 4649)
+3298999: mip =   4.000000000e+02 >=   2.830000000e+02  29.2% (4962; 4690)
Time used: 780.8 secs.  Memory used: 48.2 Mb.
+3322314: mip =   4.000000000e+02 >=   2.830000000e+02  29.2% (5010; 4726)
+3344475: mip =   4.000000000e+02 >=   2.830000000e+02  29.2% (5058; 4753)
+3366904: mip =   4.000000000e+02 >=   2.830000000e+02  29.2% (5086; 4775)
+3388956: mip =   4.000000000e+02 >=   2.830000000e+02  29.2% (5146; 4794)
+3411123: mip =   4.000000000e+02 >=   2.830000000e+02  29.2% (5187; 4820)
+3432719: mip =   4.000000000e+02 >=   2.830000000e+02  29.2% (5215; 4836)
+3455115: mip =   4.000000000e+02 >=   2.830000000e+02  29.2% (5241; 4856)
+3477001: mip =   4.000000000e+02 >=   2.830000000e+02  29.2% (5269; 4878)
+3497982: mip =   4.000000000e+02 >=   2.830000000e+02  29.2% (5292; 4906)
+3519125: mip =   4.000000000e+02 >=   2.830000000e+02  29.2% (5322; 4925)
+3540312: mip =   4.000000000e+02 >=   2.830000000e+02  29.2% (5363; 4952)
+3562632: mip =   4.000000000e+02 >=   2.830000000e+02  29.2% (5403; 4973)
Time used: 840.9 secs.  Memory used: 51.4 Mb.
+3584165: mip =   4.000000000e+02 >=   2.830000000e+02  29.2% (5418; 5035)
+3606647: mip =   4.000000000e+02 >=   2.830000000e+02  29.2% (5474; 5067)
+3628733: mip =   4.000000000e+02 >=   2.830000000e+02  29.2% (5516; 5103)
+3651050: mip =   4.000000000e+02 >=   2.830000000e+02  29.2% (5561; 5136)
+3673225: mip =   4.000000000e+02 >=   2.830000000e+02  29.2% (5610; 5147)
+3694906: mip =   4.000000000e+02 >=   2.830000000e+02  29.2% (5642; 5198)
+3715633: mip =   4.000000000e+02 >=   2.830000000e+02  29.2% (5672; 5210)
+3737552: mip =   4.000000000e+02 >=   2.830000000e+02  29.2% (5697; 5241)
+3759068: mip =   4.000000000e+02 >=   2.830000000e+02  29.2% (5722; 5265)
+3780689: mip =   4.000000000e+02 >=   2.830000000e+02  29.2% (5762; 5290)
+3802767: mip =   4.000000000e+02 >=   2.830000000e+02  29.2% (5793; 5300)
+3824577: mip =   4.000000000e+02 >=   2.830000000e+02  29.2% (5819; 5337)
Time used: 900.9 secs.  Memory used: 55.2 Mb.
+3847600: mip =   4.000000000e+02 >=   2.830000000e+02  29.2% (5844; 5379)
+3870395: mip =   4.000000000e+02 >=   2.830000000e+02  29.2% (5880; 5405)
+3892246: mip =   4.000000000e+02 >=   2.830000000e+02  29.2% (5903; 5436)
+3913760: mip =   4.000000000e+02 >=   2.830000000e+02  29.2% (5938; 5460)
+3935471: mip =   4.000000000e+02 >=   2.830000000e+02  29.2% (5976; 5515)
+3956600: mip =   4.000000000e+02 >=   2.840000000e+02  29.0% (5988; 5548)
+3977385: mip =   4.000000000e+02 >=   2.840000000e+02  29.0% (6000; 5580)
+3998479: mip =   4.000000000e+02 >=   2.840000000e+02  29.0% (6018; 5603)
+4019705: mip =   4.000000000e+02 >=   2.840000000e+02  29.0% (6040; 5614)
+4041155: mip =   4.000000000e+02 >=   2.840000000e+02  29.0% (6057; 5635)
+4061667: mip =   4.000000000e+02 >=   2.840000000e+02  29.0% (6063; 5668)
Time used: 961.3 secs.  Memory used: 58.1 Mb.
+4082641: mip =   4.000000000e+02 >=   2.840000000e+02  29.0% (6090; 5694)
+4104013: mip =   4.000000000e+02 >=   2.850000000e+02  28.7% (6107; 5708)
+4125858: mip =   4.000000000e+02 >=   2.850000000e+02  28.7% (6134; 5728)
+4147011: mip =   4.000000000e+02 >=   2.850000000e+02  28.7% (6160; 5744)
+4168393: mip =   4.000000000e+02 >=   2.850000000e+02  28.7% (6179; 5758)
+4189818: mip =   4.000000000e+02 >=   2.850000000e+02  28.7% (6182; 5781)
+4211510: mip =   4.000000000e+02 >=   2.850000000e+02  28.7% (6203; 5811)
+4231969: mip =   4.000000000e+02 >=   2.850000000e+02  28.7% (6189; 5849)
+4253377: mip =   4.000000000e+02 >=   2.860000000e+02  28.5% (6167; 5896)
+4274286: mip =   4.000000000e+02 >=   2.860000000e+02  28.5% (6174; 5907)
+4294807: mip =   4.000000000e+02 >=   2.860000000e+02  28.5% (6203; 5920)
+4315397: mip =   4.000000000e+02 >=   2.860000000e+02  28.5% (6220; 5949)
Time used: 1021.6 secs.  Memory used: 59.7 Mb.
+4336134: mip =   4.000000000e+02 >=   2.870000000e+02  28.2% (6239; 5970)
+4342337: >>>>>   3.990000000e+02 >=   2.870000000e+02  28.1% (6273; 5974)
+4363252: mip =   3.990000000e+02 >=   2.870000000e+02  28.1% (6310; 6013)
+4383970: mip =   3.990000000e+02 >=   2.870000000e+02  28.1% (6344; 6058)
+4404952: mip =   3.990000000e+02 >=   2.870000000e+02  28.1% (6373; 6095)
+4425147: mip =   3.990000000e+02 >=   2.870000000e+02  28.1% (6383; 6113)
+4446021: mip =   3.990000000e+02 >=   2.870000000e+02  28.1% (6400; 6141)
+4465991: mip =   3.990000000e+02 >=   2.870000000e+02  28.1% (6398; 6163)
+4487116: mip =   3.990000000e+02 >=   2.870000000e+02  28.1% (6407; 6181)
+4508731: mip =   3.990000000e+02 >=   2.870000000e+02  28.1% (6431; 6192)
+4530480: mip =   3.990000000e+02 >=   2.870000000e+02  28.1% (6434; 6218)
+4550366: mip =   3.990000000e+02 >=   2.870000000e+02  28.1% (6443; 6233)
+4570391: mip =   3.990000000e+02 >=   2.870000000e+02  28.1% (6459; 6243)
Time used: 1081.7 secs.  Memory used: 61.7 Mb.
+4591258: mip =   3.990000000e+02 >=   2.870000000e+02  28.1% (6467; 6256)
+4611801: mip =   3.990000000e+02 >=   2.870000000e+02  28.1% (6493; 6270)
+4632203: mip =   3.990000000e+02 >=   2.870000000e+02  28.1% (6504; 6291)
+4653629: mip =   3.990000000e+02 >=   2.870000000e+02  28.1% (6527; 6304)
+4675248: mip =   3.990000000e+02 >=   2.870000000e+02  28.1% (6566; 6315)
+4696183: mip =   3.990000000e+02 >=   2.870000000e+02  28.1% (6604; 6330)
+4716384: mip =   3.990000000e+02 >=   2.880000000e+02  27.8% (6614; 6361)
+4738172: mip =   3.990000000e+02 >=   2.880000000e+02  27.8% (6669; 6426)
+4760337: mip =   3.990000000e+02 >=   2.880000000e+02  27.8% (6728; 6508)
+4782463: mip =   3.990000000e+02 >=   2.880000000e+02  27.8% (6777; 6581)
+4804246: mip =   3.990000000e+02 >=   2.880000000e+02  27.8% (6836; 6615)
Time used: 1141.8 secs.  Memory used: 65.2 Mb.
+4826246: mip =   3.990000000e+02 >=   2.880000000e+02  27.8% (6887; 6675)
+4847733: mip =   3.990000000e+02 >=   2.880000000e+02  27.8% (6932; 6730)
+4869155: mip =   3.990000000e+02 >=   2.880000000e+02  27.8% (6987; 6770)
+4890224: mip =   3.990000000e+02 >=   2.880000000e+02  27.8% (7017; 6822)
+4911234: mip =   3.990000000e+02 >=   2.880000000e+02  27.8% (7054; 6854)
+4932930: mip =   3.990000000e+02 >=   2.880000000e+02  27.8% (7085; 6887)
+4953690: mip =   3.990000000e+02 >=   2.880000000e+02  27.8% (7091; 6933)
+4974312: mip =   3.990000000e+02 >=   2.880000000e+02  27.8% (7089; 6971)
+4995530: mip =   3.990000000e+02 >=   2.880000000e+02  27.8% (7100; 7002)
+5016498: mip =   3.990000000e+02 >=   2.880000000e+02  27.8% (7120; 7023)
+5038018: mip =   3.990000000e+02 >=   2.880000000e+02  27.8% (7137; 7046)
+5059134: mip =   3.990000000e+02 >=   2.890000000e+02  27.6% (7158; 7127)
Time used: 1201.8 secs.  Memory used: 69.0 Mb.
+5081605: mip =   3.990000000e+02 >=   2.890000000e+02  27.6% (7203; 7182)
+5103983: mip =   3.990000000e+02 >=   2.890000000e+02  27.6% (7232; 7240)
+5127055: mip =   3.990000000e+02 >=   2.890000000e+02  27.6% (7315; 7282)
+5149994: mip =   3.990000000e+02 >=   2.890000000e+02  27.6% (7364; 7329)
+5172238: mip =   3.990000000e+02 >=   2.890000000e+02  27.6% (7416; 7376)
+5194419: mip =   3.990000000e+02 >=   2.890000000e+02  27.6% (7454; 7448)
+5216048: mip =   3.990000000e+02 >=   2.890000000e+02  27.6% (7490; 7501)
+5237423: mip =   3.990000000e+02 >=   2.890000000e+02  27.6% (7509; 7557)
+5259948: mip =   3.990000000e+02 >=   2.890000000e+02  27.6% (7557; 7593)
+5281251: mip =   3.990000000e+02 >=   2.890000000e+02  27.6% (7578; 7636)
+5303400: mip =   3.990000000e+02 >=   2.890000000e+02  27.6% (7607; 7673)
+5324404: mip =   3.990000000e+02 >=   2.890000000e+02  27.6% (7647; 7704)
Time used: 1261.8 secs.  Memory used: 74.7 Mb.
+5344859: mip =   3.990000000e+02 >=   2.890000000e+02  27.6% (7682; 7741)
+5366287: mip =   3.990000000e+02 >=   2.890000000e+02  27.6% (7712; 7781)
+5387727: mip =   3.990000000e+02 >=   2.890000000e+02  27.6% (7732; 7810)
+5410125: mip =   3.990000000e+02 >=   2.890000000e+02  27.6% (7778; 7836)
+5431364: mip =   3.990000000e+02 >=   2.890000000e+02  27.6% (7828; 7881)
+5452673: mip =   3.990000000e+02 >=   2.890000000e+02  27.6% (7858; 7917)
+5474359: mip =   3.990000000e+02 >=   2.890000000e+02  27.6% (7887; 7964)
+5496512: mip =   3.990000000e+02 >=   2.890000000e+02  27.6% (7919; 8013)
+5518476: mip =   3.990000000e+02 >=   2.890000000e+02  27.6% (7975; 8049)
+5540185: mip =   3.990000000e+02 >=   2.890000000e+02  27.6% (8027; 8090)
+5561675: mip =   3.990000000e+02 >=   2.890000000e+02  27.6% (8043; 8124)
+5582967: mip =   3.990000000e+02 >=   2.890000000e+02  27.6% (8069; 8157)
Time used: 1322.0 secs.  Memory used: 78.2 Mb.
+5603821: mip =   3.990000000e+02 >=   2.890000000e+02  27.6% (8088; 8186)
+5624180: mip =   3.990000000e+02 >=   2.890000000e+02  27.6% (8088; 8234)
+5643770: mip =   3.990000000e+02 >=   2.890000000e+02  27.6% (8063; 8298)
+5664190: mip =   3.990000000e+02 >=   2.890000000e+02  27.6% (8060; 8365)
+5684512: mip =   3.990000000e+02 >=   2.890000000e+02  27.6% (8063; 8422)
+5705037: mip =   3.990000000e+02 >=   2.890000000e+02  27.6% (8042; 8487)
+5725745: mip =   3.990000000e+02 >=   2.900000000e+02  27.3% (8073; 8523)
+5747360: mip =   3.990000000e+02 >=   2.900000000e+02  27.3% (8122; 8544)
+5767914: mip =   3.990000000e+02 >=   2.900000000e+02  27.3% (8136; 8572)
+5788663: mip =   3.990000000e+02 >=   2.900000000e+02  27.3% (8130; 8626)
+5810372: mip =   3.990000000e+02 >=   2.900000000e+02  27.3% (8175; 8655)
Time used: 1382.0 secs.  Memory used: 80.9 Mb.
+5831972: mip =   3.990000000e+02 >=   2.900000000e+02  27.3% (8200; 8677)
+5854938: mip =   3.990000000e+02 >=   2.900000000e+02  27.3% (8239; 8705)
+5875515: mip =   3.990000000e+02 >=   2.900000000e+02  27.3% (8262; 8723)
+5897635: mip =   3.990000000e+02 >=   2.900000000e+02  27.3% (8306; 8747)
+5918834: mip =   3.990000000e+02 >=   2.900000000e+02  27.3% (8332; 8760)
+5939592: mip =   3.990000000e+02 >=   2.900000000e+02  27.3% (8357; 8777)
+5960377: mip =   3.990000000e+02 >=   2.900000000e+02  27.3% (8386; 8790)
+5983028: mip =   3.990000000e+02 >=   2.900000000e+02  27.3% (8429; 8812)
+6003736: mip =   3.990000000e+02 >=   2.900000000e+02  27.3% (8462; 8824)
+6026347: mip =   3.990000000e+02 >=   2.900000000e+02  27.3% (8522; 8840)
+6046703: mip =   3.990000000e+02 >=   2.900000000e+02  27.3% (8544; 8859)
+6067811: mip =   3.990000000e+02 >=   2.900000000e+02  27.3% (8576; 8878)
Time used: 1442.2 secs.  Memory used: 84.2 Mb.
+6087672: mip =   3.990000000e+02 >=   2.900000000e+02  27.3% (8589; 8893)
+6108301: mip =   3.990000000e+02 >=   2.900000000e+02  27.3% (8613; 8911)
+6130012: mip =   3.990000000e+02 >=   2.900000000e+02  27.3% (8651; 8936)
+6151608: mip =   3.990000000e+02 >=   2.900000000e+02  27.3% (8683; 8963)
+6173179: mip =   3.990000000e+02 >=   2.900000000e+02  27.3% (8733; 8977)
+6195025: mip =   3.990000000e+02 >=   2.900000000e+02  27.3% (8780; 8994)
+6217768: mip =   3.990000000e+02 >=   2.900000000e+02  27.3% (8847; 9006)
+6239058: mip =   3.990000000e+02 >=   2.900000000e+02  27.3% (8882; 9022)
+6260752: mip =   3.990000000e+02 >=   2.900000000e+02  27.3% (8920; 9041)
+6283155: mip =   3.990000000e+02 >=   2.900000000e+02  27.3% (8965; 9057)
+6305166: mip =   3.990000000e+02 >=   2.900000000e+02  27.3% (9009; 9083)
+6327654: mip =   3.990000000e+02 >=   2.900000000e+02  27.3% (9055; 9103)
Time used: 1502.2 secs.  Memory used: 87.8 Mb.
+6348589: mip =   3.990000000e+02 >=   2.900000000e+02  27.3% (9068; 9138)
+6370464: mip =   3.990000000e+02 >=   2.900000000e+02  27.3% (9099; 9169)
+6392590: mip =   3.990000000e+02 >=   2.900000000e+02  27.3% (9144; 9224)
+6415268: mip =   3.990000000e+02 >=   2.910000000e+02  27.1% (9165; 9289)
+6437396: mip =   3.990000000e+02 >=   2.910000000e+02  27.1% (9214; 9326)
+6459010: mip =   3.990000000e+02 >=   2.910000000e+02  27.1% (9243; 9367)
+6480333: mip =   3.990000000e+02 >=   2.910000000e+02  27.1% (9283; 9413)
+6502184: mip =   3.990000000e+02 >=   2.910000000e+02  27.1% (9339; 9453)
+6523623: mip =   3.990000000e+02 >=   2.910000000e+02  27.1% (9390; 9493)
+6544469: mip =   3.990000000e+02 >=   2.910000000e+02  27.1% (9416; 9518)
+6566301: mip =   3.990000000e+02 >=   2.910000000e+02  27.1% (9457; 9554)
+6587534: mip =   3.990000000e+02 >=   2.910000000e+02  27.1% (9471; 9585)
Time used: 1562.3 secs.  Memory used: 91.7 Mb.
+6608816: mip =   3.990000000e+02 >=   2.910000000e+02  27.1% (9480; 9631)
+6630632: mip =   3.990000000e+02 >=   2.910000000e+02  27.1% (9490; 9680)
+6651818: mip =   3.990000000e+02 >=   2.910000000e+02  27.1% (9513; 9708)
+6674478: mip =   3.990000000e+02 >=   2.910000000e+02  27.1% (9535; 9738)
+6694922: mip =   3.990000000e+02 >=   2.910000000e+02  27.1% (9551; 9761)
+6716460: mip =   3.990000000e+02 >=   2.910000000e+02  27.1% (9591; 9793)
+6737953: mip =   3.990000000e+02 >=   2.910000000e+02  27.1% (9620; 9823)
+6760834: mip =   3.990000000e+02 >=   2.910000000e+02  27.1% (9674; 9839)
+6782449: mip =   3.990000000e+02 >=   2.910000000e+02  27.1% (9717; 9869)
+6803572: mip =   3.990000000e+02 >=   2.910000000e+02  27.1% (9737; 9906)
+6826236: mip =   3.990000000e+02 >=   2.910000000e+02  27.1% (9792; 9933)
+6847755: mip =   3.990000000e+02 >=   2.910000000e+02  27.1% (9834; 9956)
Time used: 1622.3 secs.  Memory used: 95.0 Mb.
+6870137: mip =   3.990000000e+02 >=   2.910000000e+02  27.1% (9894; 9995)
+6892204: mip =   3.990000000e+02 >=   2.910000000e+02  27.1% (9937; 10029)
+6914241: mip =   3.990000000e+02 >=   2.910000000e+02  27.1% (9974; 10060)
+6937122: mip =   3.990000000e+02 >=   2.910000000e+02  27.1% (10033; 10078)
+6958752: mip =   3.990000000e+02 >=   2.910000000e+02  27.1% (10068; 10096)
+6981197: mip =   3.990000000e+02 >=   2.910000000e+02  27.1% (10127; 10120)
+7003249: mip =   3.990000000e+02 >=   2.910000000e+02  27.1% (10185; 10153)
+7025114: mip =   3.990000000e+02 >=   2.910000000e+02  27.1% (10227; 10191)
+7046993: mip =   3.990000000e+02 >=   2.910000000e+02  27.1% (10268; 10242)
+7068685: mip =   3.990000000e+02 >=   2.910000000e+02  27.1% (10301; 10274)
+7090543: mip =   3.990000000e+02 >=   2.910000000e+02  27.1% (10351; 10310)
Time used: 1682.4 secs.  Memory used: 99.1 Mb.
+7113080: mip =   3.990000000e+02 >=   2.910000000e+02  27.1% (10398; 10323)
+7135383: mip =   3.990000000e+02 >=   2.910000000e+02  27.1% (10445; 10343)
+7156830: mip =   3.990000000e+02 >=   2.910000000e+02  27.1% (10478; 10374)
+7180883: mip =   3.990000000e+02 >=   2.910000000e+02  27.1% (10504; 10384)
+7203716: mip =   3.990000000e+02 >=   2.910000000e+02  27.1% (10558; 10394)
+7225997: mip =   3.990000000e+02 >=   2.910000000e+02  27.1% (10599; 10425)
+7248204: mip =   3.990000000e+02 >=   2.910000000e+02  27.1% (10625; 10466)
+7270289: mip =   3.990000000e+02 >=   2.910000000e+02  27.1% (10665; 10482)
+7291850: mip =   3.990000000e+02 >=   2.910000000e+02  27.1% (10723; 10524)
+7314370: mip =   3.990000000e+02 >=   2.910000000e+02  27.1% (10770; 10587)
+7337095: mip =   3.990000000e+02 >=   2.910000000e+02  27.1% (10816; 10620)
+7352379: >>>>>   3.670000000e+02 >=   2.910000000e+02  20.7% (10871; 10632)
Time used: 1742.4 secs.  Memory used: 103.1 Mb.
+7374917: mip =   3.670000000e+02 >=   2.910000000e+02  20.7% (10315; 12090)
+7396894: mip =   3.670000000e+02 >=   2.910000000e+02  20.7% (10351; 12105)
+7419864: mip =   3.670000000e+02 >=   2.910000000e+02  20.7% (10394; 12123)
+7441692: mip =   3.670000000e+02 >=   2.910000000e+02  20.7% (10429; 12138)
+7463793: mip =   3.670000000e+02 >=   2.910000000e+02  20.7% (10459; 12153)
+7485814: mip =   3.670000000e+02 >=   2.910000000e+02  20.7% (10487; 12180)
+7508155: mip =   3.670000000e+02 >=   2.910000000e+02  20.7% (10534; 12208)
+7530111: mip =   3.670000000e+02 >=   2.910000000e+02  20.7% (10575; 12244)
+7551894: mip =   3.670000000e+02 >=   2.910000000e+02  20.7% (10594; 12303)
+7574774: mip =   3.670000000e+02 >=   2.910000000e+02  20.7% (10635; 12326)
+7595886: mip =   3.670000000e+02 >=   2.910000000e+02  20.7% (10684; 12351)
+7617695: mip =   3.670000000e+02 >=   2.910000000e+02  20.7% (10714; 12387)
